200
1000
266
265
265
261
258
258
256
256
252
250
250
250
249
248
247
246
246
245
241
241
238
235
234
228
228
227
227
227
225
225
224
222
221
221
217
216
215
214
214
213
209
206
204
204
204
201
201
196
195
195
195
194
194
193
192
191
191
191
191
191
191
190
187
187
185
183
183
180
178
177
176
175
172
171
170
170
168
167
167
166
165
164
164
161
157
156
154
153
153
148
147
146
145
143
143
141
141
139
139
138
138
135
134
131
128
128
128
127
127
127
126
125
123
123
119
118
115
115
113
113
111
108
107
106
104
99
99
97
94
92
91
88
88
87
87
86
86
85
84
84
81
81
79
79
78
78
77
75
74
70
69
69
68
66
65
64
64
62
61
61
60
59
54
54
53
52
49
46
46
45
44
44
43
41
39
37
35
35
34
34
33
33
33
32
31
29
29
29
28
28
28
28
27
25
25
24
23
22
21
21
